NAME : A-n54-k7-30
TYPE : VRP-D
DIMENSION : 30
CAPACITY : 100
NODE_COORD_SECTION 
 1 61 5
 2 85 53
 3 17 57
 4 49 93
 5 69 11
 6 87 15
 7 49 39
 8 87 23
 9 19 83
 10 69 87
 11 69 43
 12 49 67
 13 17 61
 14 45 61
 15 21 53
 16 71 37
 17 53 23
 18 77 63
 19 89 7
 20 21 83
 21 77 25
 22 85 95
 23 43 93
 24 75 25
 25 1 43
 26 7 7
 27 81 69
 28 23 57
 29 81 15
 30 77 35
DEMAND_SECTION 
1 0 
2 24 
3 9 
4 15 
5 17 
6 2 
7 19 
8 10 
9 17 
10 20 
11 16 
12 8 
13 12 
14 3 
15 23 
16 4 
17 23 
18 20 
19 2 
20 19 
21 2 
22 23 
23 23 
24 5 
25 12 
26 15 
27 9 
28 13 
29 18 
30 16 
DEPOT_SECTION 
 1  
 -1  
EOF 
